<number of tasks>
50

<cycle time>
1000

<order strength>
0.195


<task times>
1 178
2 127
3 35
4 126
5 126
6 107
7 113
8 176
9 206
10 426
11 96
12 164
13 224
14 212
15 168
16 242
17 83
18 216
19 173
20 110
21 136
22 246
23 44
24 176
25 74
26 129
27 157
28 199
29 69
30 156
31 150
32 178
33 82
34 61
35 54
36 143
37 45
38 156
39 183
40 123
41 201
42 287
43 103
44 224
45 176
46 248
47 149
48 155
49 281
50 266

<precedence relations>
1,5
1,7
1,11
3,6
3,9
3,10
3,11
4,8
5,14
6,12
7,13
7,17
8,15
8,16
9,18
9,35
9,37
10,35
11,29
12,20
13,21
14,24
15,23
16,19
16,25
17,22
19,26
20,27
21,29
22,28
23,29
24,31
25,30
26,32
27,33
28,34
29,35
29,37
29,38
30,36
30,38
32,40
33,39
33,41
34,43
34,45
35,42
37,44
39,46
40,47
41,48
42,49
44,50

<end>
